50
120
100
100
99
96
96
93
91
90
90
87
84
83
80
80
80
75
74
72
72
71
71
70
69
66
65
63
60
58
57
56
54
54
53
53
53
51
51
49
46
43
40
39
38
37
37
34
33
33
31
31
